Route #1: 47 44 10 27 8 5 37
Route #2: 29 51 33 35 7 43 2
Route #3: 48 38 32 34 19 15 13 46 9 16
Route #4: 22 26 49 17 50 12 23 45 4
Route #5: 28 11 21 14 39 24 31 3 18 30
Route #6: 6 36 1 20 42 40
Route #7: 41 25
Cost 762